p cnf 17 23
-1 9 17 0 
-2 -3 17 0 
-4 12 17 0 
-5 -6 17 0 
-6 17 0 
-2 -7 17 0 
-8 -7 17 0 
-9 1 17 0 
-10 17 0 
-11 -12 4 -13 17 0 
-5 17 0 
-8 -5 17 0 
-8 -6 17 0 
-7 -2 17 0 
-14 17 0 
-7 17 0 
-8 17 0 
-3 -7 17 0 
-2 -6 17 0 
-13 17 0 
-15 17 0 
-14 -5 17 0 
-14 -16 17 0 
